% demand
num_movements = 14;
loading_factor = [950, 1250, 1950, 1050, 1550, 850, 1800, 850, 1400, 1650, 850, 1600, 1350, 1550];
pickup_time = [0, 0, 0, 0, 0, 3, 3, 3, 3, 4, 5, 5, 5, 5];
delivery_time = [2, 3, 5, 3, 3, 5, 4, 4, 4, 6, 6, 6, 6, 6];

% transporter definition
total_capacity = 7000;
num_decks = 3;
capacity = [3000, 1000, 3000];

% ways out of decks
num_ways_out = 1;
paths_out = array3d(decks, ways_out, decks, [
% ways out of deck d1
2, 3, 0, 

% ways out of deck d2
3, 0, 0, 

% ways out of deck d3
0, 0, 0,	

]);

